Version identifier: 22.1.0.0 | 2022-03-09 | 1a383f8ce
CPXPARAM_Threads                                 1
CPXPARAM_MIP_Strategy_VariableSelect             3
CPXPARAM_TimeLimit                               599.99997592700004
1 of 1 MIP starts provided solutions.
MIP start 'm1' defined initial solution with objective 1.0000.
Tried aggregator 2 times.
MIP Presolve eliminated 37 rows and 1 columns.
MIP Presolve added 32 rows and 8 columns.
MIP Presolve modified 73 coefficients.
Aggregator did 8 substitutions.
Reduced MIP has 1212 rows, 5000 columns, and 72772 nonzeros.
Reduced MIP has 5000 binaries, 0 generals, 0 SOSs, and 0 indicators.
Presolve time = 0.10 sec. (128.32 ticks)
Probing time = 0.02 sec. (15.05 ticks)
Tried aggregator 1 time.
Detecting symmetries...
MIP Presolve modified 14 coefficients.
Reduced MIP has 1212 rows, 5000 columns, and 73148 nonzeros.
Reduced MIP has 5000 binaries, 0 generals, 0 SOSs, and 0 indicators.
Presolve time = 0.07 sec. (84.04 ticks)
Probing time = 0.02 sec. (15.09 ticks)
Clique table members: 796.
MIP emphasis: balance optimality and feasibility.
MIP search method: dynamic search.
Parallel mode: none, using 1 thread.
Root relaxation solution time = 0.96 sec. (1142.80 ticks)

        Nodes                                         Cuts/
   Node  Left     Objective  IInf  Best Integer    Best Bound    ItCnt     Gap

*     0+    0                            1.0000    20100.0000              --- 
      0     0      200.0000   861        1.0000      200.0000     4246     --- 
*     0+    0                           17.0000      200.0000              --- 
      0     0      200.0000   405       17.0000       Cuts: 4     7492     --- 
      0     0      200.0000   300       17.0000    Cliques: 6     8219     --- 
      0     0      200.0000   448       17.0000      Cuts: 42    11273     --- 
*     0+    0                           87.0000      200.0000           129.89%
*     0+    0                          174.0000      200.0000            14.94%
*     0+    0                          183.0000      200.0000             9.29%
      0     0        cutoff            183.0000      200.0000    11273    9.29%
      0     0      200.0000   278      183.0000       Cuts: 3    11594    9.29%
      0     0      200.0000   478      183.0000      Cuts: 69    15399    9.29%
Detecting symmetries...
Detecting symmetries...
      0     2      200.0000   304      183.0000      200.0000    15399    9.29%
Elapsed time = 41.55 sec. (47295.11 ticks, tree = 0.01 MB, solutions = 5)
      1     3      200.0000   307      183.0000      200.0000    16283    9.29%
      2     4      200.0000   405      183.0000      200.0000    19598    9.29%
      3     5      200.0000   418      183.0000      200.0000    21670    9.29%
      4     6      200.0000   432      183.0000      200.0000    25210    9.29%
      5     7      200.0000   341      183.0000      200.0000    25482    9.29%
      6     8      200.0000   466      183.0000      200.0000    34349    9.29%
      7     9      200.0000   654      183.0000      200.0000    35226    9.29%
      8    10      200.0000   516      183.0000      200.0000    35571    9.29%
      9    11      200.0000   488      183.0000      200.0000    39756    9.29%
     10    12      200.0000   508      183.0000      200.0000    39938    9.29%
Elapsed time = 50.55 sec. (56763.22 ticks, tree = 0.04 MB, solutions = 5)
     11    13      200.0000   456      183.0000      200.0000    45913    9.29%
     13    14      199.6333   362      183.0000      200.0000    52912    9.29%
     14    15      200.0000   325      183.0000      200.0000    59342    9.29%
     15    16      200.0000   302      183.0000      200.0000    64149    9.29%
     18    18      199.0000   413      183.0000      200.0000    69080    9.29%
     20    20      200.0000   292      183.0000      200.0000    72062    9.29%
     24    21      200.0000   312      183.0000      200.0000    74073    9.29%
     26    23      200.0000   305      183.0000      200.0000    80811    9.29%
     29    26      200.0000   273      183.0000      200.0000    87391    9.29%
     30    26      198.9290   369      183.0000      200.0000    90765    9.29%
Elapsed time = 65.37 sec. (71822.06 ticks, tree = 0.11 MB, solutions = 5)
     32    27      198.7519   411      183.0000      200.0000    94629    9.29%
     34    29      200.0000   295      183.0000      200.0000    98716    9.29%
     36    30      198.9173   362      183.0000      200.0000   104140    9.29%
     38    31      199.0361   487      183.0000      200.0000   112974    9.29%
     40    33      200.0000   376      183.0000      200.0000   114134    9.29%
     41    33      199.0501   487      183.0000      200.0000   120931    9.29%
     46    36      200.0000   264      183.0000      200.0000   121438    9.29%
     49    38      200.0000   184      183.0000      200.0000   125772    9.29%
     50    38      199.0000   338      183.0000      200.0000   130069    9.29%
     52    39      199.0338   376      183.0000      200.0000   136824    9.29%
Elapsed time = 77.78 sec. (83998.01 ticks, tree = 0.24 MB, solutions = 5)
     55    41      200.0000   209      183.0000      200.0000   139371    9.29%
     57    43      200.0000   259      183.0000      200.0000   142918    9.29%
     59    45      199.6765   365      183.0000      200.0000   153668    9.29%
     63    47      199.7940   353      183.0000      200.0000   157753    9.29%
     65    48      199.0503   339      183.0000      200.0000   165106    9.29%
     67    49      199.1319   344      183.0000      200.0000   171736    9.29%
     69    51      200.0000   200      183.0000      200.0000   176852    9.29%
     70    51      198.8346   337      183.0000      200.0000   180993    9.29%
     71    51      198.7326   347      183.0000      200.0000   186726    9.29%
     73    52      199.4509   330      183.0000      200.0000   191500    9.29%
Elapsed time = 90.19 sec. (95940.60 ticks, tree = 0.33 MB, solutions = 5)
     76    54      199.3530   333      183.0000      200.0000   199926    9.29%
     78    56      200.0000   146      183.0000      200.0000   205914    9.29%
     80    56      199.0000   293      183.0000      200.0000   213956    9.29%
     84    59      198.8309   389      183.0000      200.0000   222490    9.29%
     86    60      198.9803   362      183.0000      200.0000   227455    9.29%
     87    61      199.0000   207      183.0000      200.0000   234318    9.29%
     89    62      199.0000   232      183.0000      200.0000   243441    9.29%
     91    64      199.0000   227      183.0000      200.0000   248593    9.29%
     93    65      199.0000   192      183.0000      200.0000   254163    9.29%
     95    66      198.7990   315      183.0000      200.0000   262074    9.29%
Elapsed time = 105.09 sec. (110302.98 ticks, tree = 0.41 MB, solutions = 5)
     98    68      198.7564   372      183.0000      200.0000   269800    9.29%
    101    69      198.9583   302      183.0000      200.0000   279134    9.29%
    103    71      199.0000   244      183.0000      200.0000   285979    9.29%
    105    73      199.0000   209      183.0000      200.0000   291333    9.29%
    107    73      198.9583   308      183.0000      200.0000   299125    9.29%
    109    74      198.8719   333      183.0000      200.0000   304403    9.29%
    111    75      199.0000   266      183.0000      200.0000   309082    9.29%
    114    77      199.0000   247      183.0000      200.0000   314523    9.29%
    117    79      199.0000   275      183.0000      200.0000   321333    9.29%
    120    80      198.0000   304      183.0000      200.0000   328159    9.29%
Elapsed time = 118.97 sec. (123425.39 ticks, tree = 0.52 MB, solutions = 5)
    122    81      198.7848   386      183.0000      200.0000   335042    9.29%
    124    82      199.0000   223      183.0000      200.0000   340556    9.29%
    126    83      199.0000   243      183.0000      200.0000   348183    9.29%
    128    84      198.8793   333      183.0000      200.0000   355114    9.29%
    130    85      199.0000   295      183.0000      200.0000   364070    9.29%
    134    89      199.0000   290      183.0000      200.0000   364469    9.29%
    138    93      199.0000   310      183.0000      200.0000   366779    9.29%
    141    95      198.9665   357      183.0000      200.0000   369355    9.29%
    144    98      199.0000   283      183.0000      200.0000   370643    9.29%
    147   101      198.8121   337      183.0000      200.0000   373095    9.29%
Elapsed time = 131.63 sec. (136186.26 ticks, tree = 0.72 MB, solutions = 5)
    151   105      198.7641   322      183.0000      200.0000   375684    9.29%
    155   109      199.0000   276      183.0000      200.0000   377000    9.29%
    158   111      198.7783   319      183.0000      200.0000   379534    9.29%
    160   112      198.9675   367      183.0000      200.0000   380584    9.29%
    163   115      199.0000   319      183.0000      200.0000   382203    9.29%
    167   119      191.0000   363      183.0000      200.0000   382975    9.29%
    170   119      198.9721   405      183.0000      200.0000   384636    9.29%
    175   124      198.7599   328      183.0000      200.0000   386062    9.29%
    180   128      198.7599   326      183.0000      200.0000   386070    9.29%
    184   132      198.7562   331      183.0000      200.0000   387526    9.29%
Elapsed time = 142.48 sec. (147885.49 ticks, tree = 1.09 MB, solutions = 5)
    188   135      198.0000   365      183.0000      200.0000   389394    9.29%
    192   139      198.0000   263      183.0000      200.0000   391030    9.29%
    196   143      198.0000   261      183.0000      200.0000   391630    9.29%
    200   145      198.0000   247      183.0000      200.0000   393034    9.29%
    204   149      198.0000   247      183.0000      200.0000   393806    9.29%
    208   153      198.0000   229      183.0000      200.0000   394723    9.29%
    212   156      197.9758   300      183.0000      200.0000   395557    9.29%
    217   157      196.0000   232      183.0000      200.0000   396921    9.29%
    223   160      196.0000   217      183.0000      200.0000   397277    9.29%
    228   163      195.7097   222      183.0000      200.0000   398168    9.29%
Elapsed time = 153.15 sec. (159088.42 ticks, tree = 1.49 MB, solutions = 5)
    234   168      195.0000   204      183.0000      200.0000   398855    9.29%
    240   172      195.0000   187      183.0000      200.0000   399760    9.29%
    247   173      195.0000   228      183.0000      200.0000   400015    9.29%
    254   179      194.8205   216      183.0000      200.0000   400366    9.29%
    261   185      194.5758   183      183.0000      200.0000   400844    9.29%
    273   191      190.6667   135      183.0000      200.0000   401094    9.29%
    286   196      190.0000    64      183.0000      200.0000   401562    9.29%
    296   203      190.0000    62      183.0000      200.0000   401870    9.29%
    308   205      189.0000    46      183.0000      200.0000   402128    9.29%
    330   219      198.7537   397      183.0000      200.0000   405348    9.29%
Elapsed time = 165.26 sec. (172250.62 ticks, tree = 2.17 MB, solutions = 5)
    342   231      198.6532   419      183.0000      200.0000   407897    9.29%
    357   244      198.4803   383      183.0000      200.0000   410022    9.29%
    370   249      197.9433   347      183.0000      200.0000   412060    9.29%
    386   258      197.0000   212      183.0000      200.0000   414714    9.29%
    405   268      196.0000   233      183.0000      200.0000   419201    9.29%
    426   285      195.4685   231      183.0000      200.0000   421033    9.29%
    457   304      190.5000   113      183.0000      200.0000   423482    9.29%
    496   327      189.0000    93      183.0000      200.0000   424538    9.29%
    517   337      199.0943   353      183.0000      200.0000   434641    9.29%
    530   347      198.5816   418      183.0000      200.0000   438419    9.29%
Elapsed time = 202.51 sec. (212360.93 ticks, tree = 3.72 MB, solutions = 5)
    545   360      198.0000   382      183.0000      200.0000   440107    9.29%
    563   366      198.0000   325      183.0000      200.0000   443063    9.29%
    590   368    infeasible            183.0000      200.0000   447067    9.29%
    600   374      198.0000   372      183.0000      200.0000   454612    9.29%
    615   383      196.0000   263      183.0000      200.0000   458635    9.29%
    636   403      195.8978   283      183.0000      200.0000   459657    9.29%
    657   423      195.8556   302      183.0000      200.0000   460355    9.29%
    681   442      195.0000   249      183.0000      200.0000   461152    9.29%
    710   455      193.7989   219      183.0000      200.0000   462806    9.29%
    746   485      192.0000   175      183.0000      200.0000   464003    9.29%
Elapsed time = 238.87 sec. (251256.59 ticks, tree = 5.44 MB, solutions = 5)
    786   510      199.0000   395      183.0000      200.0000   471091    9.29%
    798   520      198.0000   373      183.0000      200.0000   474040    9.29%
    812   529      197.0000   294      183.0000      200.0000   475779    9.29%
    834   545      195.0000   187      183.0000      200.0000   478407    9.29%
    866   573      193.3929   132      183.0000      200.0000   480223    9.29%
*   898   525      integral     0      189.0000      200.0000   481132    5.82%
    901   526      199.0000   297      189.0000      200.0000   483229    5.82%
    917   537      198.0000   262      189.0000      200.0000   486518    5.82%
    936   552      196.0000   222      189.0000      200.0000   489641    5.82%
    960   570      194.9535   198      189.0000      200.0000   491173    5.82%
    989   597      193.7807   190      189.0000      200.0000   492469    5.82%
Elapsed time = 275.75 sec. (291504.63 ticks, tree = 6.85 MB, solutions = 6)
   1023   621      198.9341   295      189.0000      200.0000   494832    5.82%
   1025   621      198.6667   385      189.0000      200.0000   504795    5.82%

Performing restart 1

Repeating presolve.
Tried aggregator 1 time.
MIP Presolve eliminated 0 rows and 189 columns.
MIP Presolve modified 14052 coefficients.
Reduced MIP has 1212 rows, 4811 columns, and 48469 nonzeros.
Reduced MIP has 4811 binaries, 0 generals, 0 SOSs, and 0 indicators.
Presolve time = 0.04 sec. (38.41 ticks)
Tried aggregator 1 time.
MIP Presolve eliminated 0 rows and 376 columns.
Reduced MIP has 1212 rows, 4435 columns, and 43037 nonzeros.
Reduced MIP has 4435 binaries, 0 generals, 0 SOSs, and 0 indicators.
Presolve time = 0.03 sec. (21.25 ticks)
Tried aggregator 1 time.
Reduced MIP has 1212 rows, 4435 columns, and 43037 nonzeros.
Reduced MIP has 4435 binaries, 0 generals, 0 SOSs, and 0 indicators.
Presolve time = 0.03 sec. (25.11 ticks)
Represolve time = 0.44 sec. (267.24 ticks)
   1027     0      199.0000   874      189.0000     Cuts: 306   518188    5.29%
   1027     0      199.0000   945      189.0000     Cuts: 253   525145    5.29%
   1027     0      199.0000   425      189.0000      Cuts: 15   527605    5.29%
   1027     0      199.0000   454      189.0000     Cuts: 174   530120    5.29%
   1027     0      199.0000   603      189.0000      Cuts: 24   532869    5.29%
   1027     0      199.0000   650      189.0000      Cuts: 11   536041    5.29%
   1027     2      199.0000   273      189.0000      199.0000   536041    5.29%
   1030     5      199.0000   689      189.0000      199.0000   552244    5.29%
   1036    11      199.0000   622      189.0000      199.0000   565043    5.29%
   1042    17      199.0000   532      189.0000      199.0000   575514    5.29%
   1052    27      199.0000   489      189.0000      199.0000   584024    5.29%
   1063    38      199.0000   686      189.0000      199.0000   588474    5.29%
   1076    43      190.0000   374      189.0000      199.0000   596258    5.29%
   1105    72      190.0000   194      189.0000      199.0000   600421    5.29%
Elapsed time = 366.97 sec. (378317.33 ticks, tree = 0.51 MB, solutions = 6)
   1192   114      190.0000    46      189.0000      199.0000   609750    5.29%
   1217   133      199.0000   583      189.0000      199.0000   615976    5.29%
   1233   149      199.0000   500      189.0000      199.0000   625326    5.29%
   1252   167      190.0000   331      189.0000      199.0000   633671    5.29%
   1280   189      199.0000   448      189.0000      199.0000   643514    5.29%
   1295   204      198.8915   400      189.0000      199.0000   652321    5.29%
   1320   229      190.0000   196      189.0000      199.0000   657945    5.29%
*  1329    90      integral     0      190.0000      199.0000   659093    4.74%
   1340   100      198.7024   408      190.0000      199.0000   665014    4.74%
   1362   119      198.6929   340      190.0000      199.0000   672807    4.74%
   1382   129      199.0000   334      190.0000      199.0000   682996    4.74%
Elapsed time = 409.31 sec. (418780.24 ticks, tree = 0.61 MB, solutions = 7)
   1397   137        cutoff            190.0000      199.0000   696226    4.74%
   1426   155      193.6786   193      190.0000      199.0000   707986    4.74%
   1466   187      198.4821   385      190.0000      199.0000   714114    4.74%
   1477   188      198.0000   397      190.0000      199.0000   729128    4.74%
   1491   194      199.0000   391      190.0000      199.0000   740787    4.74%
   1503   203      198.5367   441      190.0000      199.0000   752618    4.74%
   1513   210      198.0000   384      190.0000      199.0000   762946    4.74%
   1523   213      199.0000   368      190.0000      199.0000   776505    4.74%
   1539   221      196.0000   336      190.0000      199.0000   787832    4.74%
   1557   232      198.0000   412      190.0000      199.0000   796383    4.74%
Elapsed time = 451.54 sec. (458749.14 ticks, tree = 0.81 MB, solutions = 7)
   1570   238      196.0000   230      190.0000      199.0000   810106    4.74%
   1593   240    infeasible            190.0000      199.0000   824209    4.74%
   1611   243      197.0000   374      190.0000      199.0000   837185    4.74%
   1628   248      194.1880   224      190.0000      199.0000   853157    4.74%
   1643   254        cutoff            190.0000      199.0000   865024    4.74%
   1656   261      199.0000   370      190.0000      199.0000   877004    4.74%
   1677   281      198.0000   452      190.0000      199.0000   884065    4.74%
   1699   303      198.0000   310      190.0000      199.0000   890342    4.74%
   1717   321      198.0000   370      190.0000      199.0000   899338    4.74%
   1742   345      197.0000   461      190.0000      199.0000   905599    4.74%
Elapsed time = 492.30 sec. (497753.90 ticks, tree = 1.04 MB, solutions = 7)
   1765   368      197.0000   409      190.0000      199.0000   906573    4.74%
   1786   380      198.0000   376      190.0000      199.0000   916103    4.74%
   1807   398      196.0000   311      190.0000      199.0000   923756    4.74%
   1826   404      197.0000   250      190.0000      199.0000   937651    4.74%
   1846   414      198.0000   376      190.0000      199.0000   948527    4.74%
   1863   422      195.0000   318      190.0000      199.0000   961884    4.74%
   1876   427      198.0000   381      190.0000      199.0000   974683    4.74%
   1892   433      198.8810   358      190.0000      199.0000   991488    4.74%
   1918   457    infeasible            190.0000      199.0000   998906    4.74%
   1939   473      197.7857   342      190.0000      199.0000  1006862    4.74%
Elapsed time = 533.94 sec. (537367.78 ticks, tree = 1.29 MB, solutions = 7)
   1955   476      197.0000   519      190.0000      199.0000  1020397    4.74%
   1975   486      196.0000   320      190.0000      199.0000  1029483    4.74%
   1994   492      198.1646   407      190.0000      199.0000  1039171    4.74%
   2013   502        cutoff            190.0000      199.0000  1050707    4.74%
   2022   502        cutoff            190.0000      199.0000  1067210    4.74%
Starting limited solution polishing.
   2038   509      197.0000   335      190.0000      199.0000  1079651    4.74%
   2048   510      196.8868   381      190.0000      199.0000  1101659    4.74%
   2063   519      196.8734   344      190.0000      199.0000  1116102    4.74%
   2082   527      196.0000   264      190.0000      199.0000  1129263    4.74%
   2101   531        cutoff            190.0000      199.0000  1142338    4.74%
Elapsed time = 576.93 sec. (577588.92 ticks, tree = 1.86 MB, solutions = 7)
   2124   534      195.0000   288      190.0000      199.0000  1154541    4.74%
   2150   542        cutoff            190.0000      199.0000  1166535    4.74%
   2181   564      191.7143   228      190.0000      199.0000  1177216    4.74%
   2214   585      197.0000   424      190.0000      199.0000  1185972    4.74%
   2236   607      196.7000   336      190.0000      199.0000  1189343    4.74%

Clique cuts applied:  85
Mixed integer rounding cuts applied:  2
Zero-half cuts applied:  64
Gomory fractional cuts applied:  2

Root node processing (before b&c):
  Real time             =   41.48 sec. (47234.70 ticks)
Sequential b&c:
  Real time             =  558.52 sec. (551376.81 ticks)
                          ------------
Total (root+branch&cut) =  600.00 sec. (598611.51 ticks)
Primal:	190
Dual:	199
Status:	Feasible
Time:	599.97
Sequence:
	22
	7
	15
	10
	14
	8
	16
	7
	15
	10
	14
	6
	22
	0
	19
	10
	14
	8
	17
	3
	17
	8
	14
	10
	14
	9
	12
	14
	6
	14
	12
	9
	14
	6
	17
	2
	9
	14
	8
	6
	14
	5
	17
	8
	14
	6
	17
	5
	19
	6
	14
	10
	17
	1
	20
	6
	15
	10
	14
	6
	19
	4
	17
	7
	16
	8
	8
	16
	6
	18
	4
	19
	6
	16
	6
	14
	10
	17
	0
	22
	8
	14
	10
	14
	8
	18
	2
	17
	8
	16
	6
	19
	3
	19
	6
	14
	6
	22
	1
	17
	6
	14
	12
	14
	9
	16
	6
	17
	4
	18
	8
	16
	6
	8
	16
	7
	17
	2
	8
	15
	10
	17
	0
	22
	6
	15
	10
	14
	7
	16
	8
	17
	4
	18
	6
	16
	8
	17
	4
	17
	6
	14
	13
	14
	6
	16
	8
	17
	5
	14
	6
	17
	4
	18
	6
	16
	8
	17
	3
	19
	6
	15
	6
	17
	5
	17
	6
	15
	6
	10
	14
	8
	11
	14
	8
	6
	15
	11
	14
	6
	14
	12
	15
	7
	17
	2
	8
	14
	9
	20
